250673.41,18.5,20.26
252154.7,18.39,20.14
248381.92,18.67,20.45
231214.48,20.06,21.97
248605.21,18.65,20.43
245181.83,18.91,20.72
250134.83,18.54,20.31
240156.8,19.31,21.15
248799.44,18.64,20.42
224819.29,20.63,22.59
243237.46,19.07,20.88
243447.15,19.05,20.87
239668.82,19.35,21.19
240870.9,19.25,21.09
237710.99,19.51,21.37
241768.14,19.18,21.01
245568.89,18.88,20.68
238947.63,19.41,21.26
241637.23,19.19,21.02
246168.93,18.84,20.63
